50
100
99
98
98
93
92
89
89
84
84
83
78
77
75
73
72
71
70
69
69
68
60
60
57
56
54
50
49
49
45
37
36
35
30
30
27
26
26
25
24
21
20
19
15
14
13
11
11
8
2
2
